NAME : XML20_1111_14
COMMENT : Generated as the XML100 dataset from the CVRPLIB
TYPE : CVRP
DIMENSION : 21
EDGE_WEIGHT_TYPE : EUC_2D
CAPACITY : 4
NODE_COORD_SECTION
1    773  667 
2    281  168 
3    647  646 
4    74   674 
5    298  751 
6    460  310 
7    164  564 
8    891  923 
9    369  823 
10   252  277 
11   477  700 
12   752  261 
13   930  121 
14   539  962 
15   528  153 
16   403  796 
17   681  679 
18   269  228 
19   827  266 
20   323  366 
21   893  406 
DEMAND_SECTION
1    0   
2    1   
3    1   
4    1   
5    1   
6    1   
7    1   
8    1   
9    1   
10   1   
11   1   
12   1   
13   1   
14   1   
15   1   
16   1   
17   1   
18   1   
19   1   
20   1   
21   1   
DEPOT_SECTION
1
-1
EOF
