NAME : XML20_1111_11
COMMENT : Generated as the XML100 dataset from the CVRPLIB
TYPE : CVRP
DIMENSION : 21
EDGE_WEIGHT_TYPE : EUC_2D
CAPACITY : 4
NODE_COORD_SECTION
1    877  946 
2    823  524 
3    649  42  
4    875  601 
5    628  812 
6    911  710 
7    609  405 
8    462  520 
9    161  638 
10   487  644 
11   457  310 
12   987  463 
13   630  665 
14   799  476 
15   194  189 
16   145  92  
17   551  829 
18   669  756 
19   541  64  
20   190  96  
21   15   851 
DEMAND_SECTION
1    0   
2    1   
3    1   
4    1   
5    1   
6    1   
7    1   
8    1   
9    1   
10   1   
11   1   
12   1   
13   1   
14   1   
15   1   
16   1   
17   1   
18   1   
19   1   
20   1   
21   1   
DEPOT_SECTION
1
-1
EOF
