NAME : XML20_1111_05
COMMENT : Generated as the XML100 dataset from the CVRPLIB
TYPE : CVRP
DIMENSION : 21
EDGE_WEIGHT_TYPE : EUC_2D
CAPACITY : 3
NODE_COORD_SECTION
1    367  814 
2    860  476 
3    542  29  
4    707  965 
5    104  587 
6    889  252 
7    861  757 
8    888  784 
9    667  944 
10   255  664 
11   160  115 
12   53   922 
13   398  163 
14   748  221 
15   417  286 
16   186  938 
17   794  965 
18   380  480 
19   255  13  
20   389  556 
21   780  816 
DEMAND_SECTION
1    0   
2    1   
3    1   
4    1   
5    1   
6    1   
7    1   
8    1   
9    1   
10   1   
11   1   
12   1   
13   1   
14   1   
15   1   
16   1   
17   1   
18   1   
19   1   
20   1   
21   1   
DEPOT_SECTION
1
-1
EOF
