NAME : XML20_1111_08
COMMENT : Generated as the XML100 dataset from the CVRPLIB
TYPE : CVRP
DIMENSION : 21
EDGE_WEIGHT_TYPE : EUC_2D
CAPACITY : 3
NODE_COORD_SECTION
1    384  129 
2    657  31  
3    214  410 
4    140  253 
5    264  99  
6    464  399 
7    273  532 
8    44   87  
9    417  485 
10   239  777 
11   850  412 
12   470  499 
13   20   717 
14   923  933 
15   506  586 
16   91   496 
17   830  518 
18   116  678 
19   197  721 
20   196  918 
21   388  743 
DEMAND_SECTION
1    0   
2    1   
3    1   
4    1   
5    1   
6    1   
7    1   
8    1   
9    1   
10   1   
11   1   
12   1   
13   1   
14   1   
15   1   
16   1   
17   1   
18   1   
19   1   
20   1   
21   1   
DEPOT_SECTION
1
-1
EOF
