NAME : XML20_1111_13
COMMENT : Generated as the XML100 dataset from the CVRPLIB
TYPE : CVRP
DIMENSION : 21
EDGE_WEIGHT_TYPE : EUC_2D
CAPACITY : 3
NODE_COORD_SECTION
1    931  700 
2    890  230 
3    129  857 
4    86   892 
5    909  825 
6    700  623 
7    667  236 
8    191  133 
9    866  219 
10   461  762 
11   30   441 
12   813  829 
13   268  846 
14   72   544 
15   656  751 
16   854  150 
17   682  150 
18   911  190 
19   762  301 
20   821  869 
21   14   282 
DEMAND_SECTION
1    0   
2    1   
3    1   
4    1   
5    1   
6    1   
7    1   
8    1   
9    1   
10   1   
11   1   
12   1   
13   1   
14   1   
15   1   
16   1   
17   1   
18   1   
19   1   
20   1   
21   1   
DEPOT_SECTION
1
-1
EOF
