NAME : XML20_1111_15
COMMENT : Generated as the XML100 dataset from the CVRPLIB
TYPE : CVRP
DIMENSION : 21
EDGE_WEIGHT_TYPE : EUC_2D
CAPACITY : 3
NODE_COORD_SECTION
1    753  37  
2    816  320 
3    725  364 
4    895  363 
5    150  877 
6    466  860 
7    523  430 
8    269  352 
9    346  477 
10   244  17  
11   56   900 
12   245  119 
13   711  376 
14   161  934 
15   878  211 
16   947  744 
17   234  957 
18   236  591 
19   824  697 
20   228  312 
21   287  401 
DEMAND_SECTION
1    0   
2    1   
3    1   
4    1   
5    1   
6    1   
7    1   
8    1   
9    1   
10   1   
11   1   
12   1   
13   1   
14   1   
15   1   
16   1   
17   1   
18   1   
19   1   
20   1   
21   1   
DEPOT_SECTION
1
-1
EOF
