NAME : XML20_1111_20
COMMENT : Generated as the XML100 dataset from the CVRPLIB
TYPE : CVRP
DIMENSION : 21
EDGE_WEIGHT_TYPE : EUC_2D
CAPACITY : 3
NODE_COORD_SECTION
1    650  869 
2    640  930 
3    594  460 
4    421  416 
5    926  103 
6    893  335 
7    173  27  
8    861  503 
9    586  927 
10   414  83  
11   248  35  
12   697  343 
13   94   642 
14   76   105 
15   421  213 
16   128  326 
17   211  586 
18   336  437 
19   485  972 
20   204  324 
21   530  824 
DEMAND_SECTION
1    0   
2    1   
3    1   
4    1   
5    1   
6    1   
7    1   
8    1   
9    1   
10   1   
11   1   
12   1   
13   1   
14   1   
15   1   
16   1   
17   1   
18   1   
19   1   
20   1   
21   1   
DEPOT_SECTION
1
-1
EOF
