NAME : XML20_1111_07
COMMENT : Generated as the XML100 dataset from the CVRPLIB
TYPE : CVRP
DIMENSION : 21
EDGE_WEIGHT_TYPE : EUC_2D
CAPACITY : 4
NODE_COORD_SECTION
1    404  666 
2    428  71  
3    596  970 
4    60   846 
5    970  228 
6    645  642 
7    88   444 
8    564  434 
9    49   74  
10   579  126 
11   599  406 
12   96   374 
13   840  548 
14   50   999 
15   226  47  
16   596  59  
17   931  519 
18   219  38  
19   570  879 
20   63   590 
21   246  92  
DEMAND_SECTION
1    0   
2    1   
3    1   
4    1   
5    1   
6    1   
7    1   
8    1   
9    1   
10   1   
11   1   
12   1   
13   1   
14   1   
15   1   
16   1   
17   1   
18   1   
19   1   
20   1   
21   1   
DEPOT_SECTION
1
-1
EOF
