NAME : XML20_1111_02
COMMENT : Generated as the XML100 dataset from the CVRPLIB
TYPE : CVRP
DIMENSION : 21
EDGE_WEIGHT_TYPE : EUC_2D
CAPACITY : 3
NODE_COORD_SECTION
1    369  855 
2    828  685 
3    922  36  
4    929  389 
5    958  455 
6    173  753 
7    441  653 
8    874  315 
9    36   595 
10   954  326 
11   521  972 
12   514  274 
13   380  557 
14   257  620 
15   402  822 
16   891  28  
17   217  621 
18   372  476 
19   433  913 
20   697  162 
21   740  880 
DEMAND_SECTION
1    0   
2    1   
3    1   
4    1   
5    1   
6    1   
7    1   
8    1   
9    1   
10   1   
11   1   
12   1   
13   1   
14   1   
15   1   
16   1   
17   1   
18   1   
19   1   
20   1   
21   1   
DEPOT_SECTION
1
-1
EOF
