NAME : XML20_1111_06
COMMENT : Generated as the XML100 dataset from the CVRPLIB
TYPE : CVRP
DIMENSION : 21
EDGE_WEIGHT_TYPE : EUC_2D
CAPACITY : 4
NODE_COORD_SECTION
1    496  780 
2    864  434 
3    423  932 
4    279  500 
5    698  96  
6    481  988 
7    777  752 
8    702  90  
9    197  576 
10   271  678 
11   267  37  
12   788  22  
13   821  202 
14   551  552 
15   747  893 
16   822  624 
17   824  746 
18   566  716 
19   678  600 
20   0    149 
21   382  327 
DEMAND_SECTION
1    0   
2    1   
3    1   
4    1   
5    1   
6    1   
7    1   
8    1   
9    1   
10   1   
11   1   
12   1   
13   1   
14   1   
15   1   
16   1   
17   1   
18   1   
19   1   
20   1   
21   1   
DEPOT_SECTION
1
-1
EOF
