NAME : XML20_1111_18
COMMENT : Generated as the XML100 dataset from the CVRPLIB
TYPE : CVRP
DIMENSION : 21
EDGE_WEIGHT_TYPE : EUC_2D
CAPACITY : 3
NODE_COORD_SECTION
1    459  342 
2    643  505 
3    780  806 
4    245  202 
5    205  752 
6    519  206 
7    990  966 
8    178  886 
9    173  243 
10   120  332 
11   920  708 
12   534  691 
13   908  270 
14   302  469 
15   374  589 
16   913  894 
17   187  491 
18   974  501 
19   830  240 
20   829  693 
21   200  259 
DEMAND_SECTION
1    0   
2    1   
3    1   
4    1   
5    1   
6    1   
7    1   
8    1   
9    1   
10   1   
11   1   
12   1   
13   1   
14   1   
15   1   
16   1   
17   1   
18   1   
19   1   
20   1   
21   1   
DEPOT_SECTION
1
-1
EOF
