NAME : XML20_1111_10
COMMENT : Generated as the XML100 dataset from the CVRPLIB
TYPE : CVRP
DIMENSION : 21
EDGE_WEIGHT_TYPE : EUC_2D
CAPACITY : 3
NODE_COORD_SECTION
1    494  591 
2    77   255 
3    473  832 
4    35   533 
5    763  369 
6    975  975 
7    702  310 
8    467  178 
9    501  335 
10   390  431 
11   880  142 
12   45   430 
13   617  363 
14   284  669 
15   290  846 
16   677  371 
17   15   211 
18   503  843 
19   136  467 
20   830  164 
21   691  268 
DEMAND_SECTION
1    0   
2    1   
3    1   
4    1   
5    1   
6    1   
7    1   
8    1   
9    1   
10   1   
11   1   
12   1   
13   1   
14   1   
15   1   
16   1   
17   1   
18   1   
19   1   
20   1   
21   1   
DEPOT_SECTION
1
-1
EOF
