NAME : XML20_1111_04
COMMENT : Generated as the XML100 dataset from the CVRPLIB
TYPE : CVRP
DIMENSION : 21
EDGE_WEIGHT_TYPE : EUC_2D
CAPACITY : 3
NODE_COORD_SECTION
1    738  405 
2    642  888 
3    949  26  
4    749  983 
5    227  532 
6    490  158 
7    826  266 
8    783  60  
9    848  656 
10   176  846 
11   283  798 
12   562  939 
13   819  278 
14   549  368 
15   92   68  
16   317  296 
17   198  168 
18   296  819 
19   219  965 
20   20   411 
21   108  268 
DEMAND_SECTION
1    0   
2    1   
3    1   
4    1   
5    1   
6    1   
7    1   
8    1   
9    1   
10   1   
11   1   
12   1   
13   1   
14   1   
15   1   
16   1   
17   1   
18   1   
19   1   
20   1   
21   1   
DEPOT_SECTION
1
-1
EOF
