NAME : XML20_1111_03
COMMENT : Generated as the XML100 dataset from the CVRPLIB
TYPE : CVRP
DIMENSION : 21
EDGE_WEIGHT_TYPE : EUC_2D
CAPACITY : 4
NODE_COORD_SECTION
1    133  378 
2    687  795 
3    776  980 
4    154  237 
5    564  239 
6    196  734 
7    930  857 
8    487  406 
9    937  618 
10   650  155 
11   888  948 
12   856  562 
13   485  640 
14   65   163 
15   620  13  
16   654  881 
17   481  553 
18   594  67  
19   480  265 
20   759  15  
21   535  399 
DEMAND_SECTION
1    0   
2    1   
3    1   
4    1   
5    1   
6    1   
7    1   
8    1   
9    1   
10   1   
11   1   
12   1   
13   1   
14   1   
15   1   
16   1   
17   1   
18   1   
19   1   
20   1   
21   1   
DEPOT_SECTION
1
-1
EOF
