NAME : XML20_1111_12
COMMENT : Generated as the XML100 dataset from the CVRPLIB
TYPE : CVRP
DIMENSION : 21
EDGE_WEIGHT_TYPE : EUC_2D
CAPACITY : 3
NODE_COORD_SECTION
1    541  682 
2    817  862 
3    571  1   
4    89   19  
5    204  76  
6    358  146 
7    347  927 
8    707  885 
9    697  414 
10   215  60  
11   376  166 
12   829  471 
13   677  639 
14   383  494 
15   280  658 
16   525  703 
17   148  450 
18   590  838 
19   390  11  
20   615  233 
21   838  345 
DEMAND_SECTION
1    0   
2    1   
3    1   
4    1   
5    1   
6    1   
7    1   
8    1   
9    1   
10   1   
11   1   
12   1   
13   1   
14   1   
15   1   
16   1   
17   1   
18   1   
19   1   
20   1   
21   1   
DEPOT_SECTION
1
-1
EOF
