NAME : XML20_1111_09
COMMENT : Generated as the XML100 dataset from the CVRPLIB
TYPE : CVRP
DIMENSION : 21
EDGE_WEIGHT_TYPE : EUC_2D
CAPACITY : 4
NODE_COORD_SECTION
1    273  141 
2    52   113 
3    173  720 
4    792  704 
5    346  514 
6    474  919 
7    432  160 
8    604  64  
9    692  6   
10   892  946 
11   342  567 
12   619  82  
13   958  631 
14   968  462 
15   135  518 
16   190  887 
17   392  808 
18   974  742 
19   716  41  
20   745  388 
21   172  243 
DEMAND_SECTION
1    0   
2    1   
3    1   
4    1   
5    1   
6    1   
7    1   
8    1   
9    1   
10   1   
11   1   
12   1   
13   1   
14   1   
15   1   
16   1   
17   1   
18   1   
19   1   
20   1   
21   1   
DEPOT_SECTION
1
-1
EOF
