NAME : XML20_1111_16
COMMENT : Generated as the XML100 dataset from the CVRPLIB
TYPE : CVRP
DIMENSION : 21
EDGE_WEIGHT_TYPE : EUC_2D
CAPACITY : 3
NODE_COORD_SECTION
1    291  426 
2    874  673 
3    20   914 
4    728  265 
5    5    419 
6    646  28  
7    613  641 
8    620  683 
9    157  827 
10   243  650 
11   682  145 
12   227  10  
13   834  343 
14   617  259 
15   232  457 
16   974  761 
17   225  979 
18   303  309 
19   22   808 
20   475  467 
21   616  317 
DEMAND_SECTION
1    0   
2    1   
3    1   
4    1   
5    1   
6    1   
7    1   
8    1   
9    1   
10   1   
11   1   
12   1   
13   1   
14   1   
15   1   
16   1   
17   1   
18   1   
19   1   
20   1   
21   1   
DEPOT_SECTION
1
-1
EOF
