NAME : XML20_1111_01
COMMENT : Generated as the XML100 dataset from the CVRPLIB
TYPE : CVRP
DIMENSION : 21
EDGE_WEIGHT_TYPE : EUC_2D
CAPACITY : 4
NODE_COORD_SECTION
1    821  782 
2    665  554 
3    388  807 
4    104  923 
5    779  460 
6    64   261 
7    821  234 
8    120  507 
9    22   26  
10   399  443 
11   914  855 
12   272  738 
13   785  2   
14   499  29  
15   622  780 
16   483  667 
17   9    961 
18   712  456 
19   605  967 
20   325  31  
21   214  96  
DEMAND_SECTION
1    0   
2    1   
3    1   
4    1   
5    1   
6    1   
7    1   
8    1   
9    1   
10   1   
11   1   
12   1   
13   1   
14   1   
15   1   
16   1   
17   1   
18   1   
19   1   
20   1   
21   1   
DEPOT_SECTION
1
-1
EOF
