NAME : XML20_1111_19
COMMENT : Generated as the XML100 dataset from the CVRPLIB
TYPE : CVRP
DIMENSION : 21
EDGE_WEIGHT_TYPE : EUC_2D
CAPACITY : 4
NODE_COORD_SECTION
1    532  123 
2    632  206 
3    116  555 
4    791  333 
5    523  204 
6    900  72  
7    75   822 
8    100  424 
9    598  151 
10   110  266 
11   918  318 
12   609  267 
13   23   582 
14   991  274 
15   421  335 
16   854  110 
17   402  355 
18   541  296 
19   942  207 
20   466  397 
21   886  751 
DEMAND_SECTION
1    0   
2    1   
3    1   
4    1   
5    1   
6    1   
7    1   
8    1   
9    1   
10   1   
11   1   
12   1   
13   1   
14   1   
15   1   
16   1   
17   1   
18   1   
19   1   
20   1   
21   1   
DEPOT_SECTION
1
-1
EOF
