NAME : XML15_1111_06
COMMENT : Generated as the XML100 dataset from the CVRPLIB
TYPE : CVRP
DIMENSION : 16
EDGE_WEIGHT_TYPE : EUC_2D
CAPACITY : 4
NODE_COORD_SECTION
1    496  780 
2    698  96  
3    481  988 
4    777  752 
5    788  22  
6    821  202 
7    423  932 
8    551  552 
9    197  576 
10   747  893 
11   279  500 
12   566  716 
13   267  37  
14   678  600 
15   0    149 
16   382  327 
DEMAND_SECTION
1    0   
2    1   
3    1   
4    1   
5    1   
6    1   
7    1   
8    1   
9    1   
10   1   
11   1   
12   1   
13   1   
14   1   
15   1   
16   1   
DEPOT_SECTION
1
-1
EOF
