NAME : XML15_1111_09
COMMENT : Generated as the XML100 dataset from the CVRPLIB
TYPE : CVRP
DIMENSION : 16
EDGE_WEIGHT_TYPE : EUC_2D
CAPACITY : 4
NODE_COORD_SECTION
1    273  141 
2    619  82  
3    958  631 
4    52   113 
5    173  720 
6    346  514 
7    474  919 
8    692  6   
9    968  462 
10   190  887 
11   974  742 
12   172  243 
13   716  41  
14   745  388 
15   432  160 
16   342  567 
DEMAND_SECTION
1    0   
2    1   
3    1   
4    1   
5    1   
6    1   
7    1   
8    1   
9    1   
10   1   
11   1   
12   1   
13   1   
14   1   
15   1   
16   1   
DEPOT_SECTION
1
-1
EOF
