NAME : XML15_1111_19
COMMENT : Generated as the XML100 dataset from the CVRPLIB
TYPE : CVRP
DIMENSION : 16
EDGE_WEIGHT_TYPE : EUC_2D
CAPACITY : 4
NODE_COORD_SECTION
1    532  123 
2    900  72  
3    854  110 
4    421  335 
5    918  318 
6    609  267 
7    23   582 
8    632  206 
9    991  274 
10   541  296 
11   942  207 
12   598  151 
13   791  333 
14   110  266 
15   523  204 
16   402  355 
DEMAND_SECTION
1    0   
2    1   
3    1   
4    1   
5    1   
6    1   
7    1   
8    1   
9    1   
10   1   
11   1   
12   1   
13   1   
14   1   
15   1   
16   1   
DEPOT_SECTION
1
-1
EOF
