NAME : XML15_1111_16
COMMENT : Generated as the XML100 dataset from the CVRPLIB
TYPE : CVRP
DIMENSION : 16
EDGE_WEIGHT_TYPE : EUC_2D
CAPACITY : 3
NODE_COORD_SECTION
1    291  426 
2    617  259 
3    874  673 
4    232  457 
5    20   914 
6    243  650 
7    728  265 
8    5    419 
9    227  10  
10   303  309 
11   682  145 
12   22   808 
13   834  343 
14   974  761 
15   225  979 
16   616  317 
DEMAND_SECTION
1    0   
2    1   
3    1   
4    1   
5    1   
6    1   
7    1   
8    1   
9    1   
10   1   
11   1   
12   1   
13   1   
14   1   
15   1   
16   1   
DEPOT_SECTION
1
-1
EOF
