NAME : XML15_1111_15
COMMENT : Generated as the XML100 dataset from the CVRPLIB
TYPE : CVRP
DIMENSION : 16
EDGE_WEIGHT_TYPE : EUC_2D
CAPACITY : 3
NODE_COORD_SECTION
1    753  37  
2    346  477 
3    816  320 
4    725  364 
5    244  17  
6    234  957 
7    56   900 
8    895  363 
9    150  877 
10   824  697 
11   245  119 
12   711  376 
13   878  211 
14   287  401 
15   161  934 
16   269  352 
DEMAND_SECTION
1    0   
2    1   
3    1   
4    1   
5    1   
6    1   
7    1   
8    1   
9    1   
10   1   
11   1   
12   1   
13   1   
14   1   
15   1   
16   1   
DEPOT_SECTION
1
-1
EOF
