NAME : XML15_1111_02
COMMENT : Generated as the XML100 dataset from the CVRPLIB
TYPE : CVRP
DIMENSION : 16
EDGE_WEIGHT_TYPE : EUC_2D
CAPACITY : 3
NODE_COORD_SECTION
1    369  855 
2    958  455 
3    828  685 
4    380  557 
5    922  36  
6    173  753 
7    441  653 
8    874  315 
9    36   595 
10   257  620 
11   402  822 
12   217  621 
13   697  162 
14   521  972 
15   740  880 
16   514  274 
DEMAND_SECTION
1    0   
2    1   
3    1   
4    1   
5    1   
6    1   
7    1   
8    1   
9    1   
10   1   
11   1   
12   1   
13   1   
14   1   
15   1   
16   1   
DEPOT_SECTION
1
-1
EOF
