NAME : XML15_1111_10
COMMENT : Generated as the XML100 dataset from the CVRPLIB
TYPE : CVRP
DIMENSION : 16
EDGE_WEIGHT_TYPE : EUC_2D
CAPACITY : 3
NODE_COORD_SECTION
1    494  591 
2    284  669 
3    503  843 
4    501  335 
5    880  142 
6    390  431 
7    77   255 
8    830  164 
9    473  832 
10   45   430 
11   290  846 
12   35   533 
13   763  369 
14   617  363 
15   975  975 
16   15   211 
DEMAND_SECTION
1    0   
2    1   
3    1   
4    1   
5    1   
6    1   
7    1   
8    1   
9    1   
10   1   
11   1   
12   1   
13   1   
14   1   
15   1   
16   1   
DEPOT_SECTION
1
-1
EOF
