NAME : XML15_1111_04
COMMENT : Generated as the XML100 dataset from the CVRPLIB
TYPE : CVRP
DIMENSION : 16
EDGE_WEIGHT_TYPE : EUC_2D
CAPACITY : 3
NODE_COORD_SECTION
1    738  405 
2    176  846 
3    283  798 
4    949  26  
5    490  158 
6    826  266 
7    296  819 
8    562  939 
9    783  60  
10   219  965 
11   20   411 
12   848  656 
13   108  268 
14   549  368 
15   227  532 
16   92   68  
DEMAND_SECTION
1    0   
2    1   
3    1   
4    1   
5    1   
6    1   
7    1   
8    1   
9    1   
10   1   
11   1   
12   1   
13   1   
14   1   
15   1   
16   1   
DEPOT_SECTION
1
-1
EOF
