NAME : XML15_1111_01
COMMENT : Generated as the XML100 dataset from the CVRPLIB
TYPE : CVRP
DIMENSION : 16
EDGE_WEIGHT_TYPE : EUC_2D
CAPACITY : 4
NODE_COORD_SECTION
1    821  782 
2    388  807 
3    779  460 
4    914  855 
5    499  29  
6    712  456 
7    64   261 
8    622  780 
9    821  234 
10   120  507 
11   272  738 
12   785  2   
13   605  967 
14   483  667 
15   399  443 
16   214  96  
DEMAND_SECTION
1    0   
2    1   
3    1   
4    1   
5    1   
6    1   
7    1   
8    1   
9    1   
10   1   
11   1   
12   1   
13   1   
14   1   
15   1   
16   1   
DEPOT_SECTION
1
-1
EOF
