NAME : XML15_1111_14
COMMENT : Generated as the XML100 dataset from the CVRPLIB
TYPE : CVRP
DIMENSION : 16
EDGE_WEIGHT_TYPE : EUC_2D
CAPACITY : 4
NODE_COORD_SECTION
1    773  667 
2    752  261 
3    891  923 
4    369  823 
5    269  228 
6    252  277 
7    930  121 
8    827  266 
9    539  962 
10   323  366 
11   74   674 
12   298  751 
13   460  310 
14   403  796 
15   477  700 
16   893  406 
DEMAND_SECTION
1    0   
2    1   
3    1   
4    1   
5    1   
6    1   
7    1   
8    1   
9    1   
10   1   
11   1   
12   1   
13   1   
14   1   
15   1   
16   1   
DEPOT_SECTION
1
-1
EOF
