NAME : XML15_1111_03
COMMENT : Generated as the XML100 dataset from the CVRPLIB
TYPE : CVRP
DIMENSION : 16
EDGE_WEIGHT_TYPE : EUC_2D
CAPACITY : 4
NODE_COORD_SECTION
1    133  378 
2    620  13  
3    650  155 
4    654  881 
5    888  948 
6    930  857 
7    856  562 
8    481  553 
9    594  67  
10   154  237 
11   480  265 
12   564  239 
13   485  640 
14   196  734 
15   487  406 
16   937  618 
DEMAND_SECTION
1    0   
2    1   
3    1   
4    1   
5    1   
6    1   
7    1   
8    1   
9    1   
10   1   
11   1   
12   1   
13   1   
14   1   
15   1   
16   1   
DEPOT_SECTION
1
-1
EOF
