NAME : XML15_1111_08
COMMENT : Generated as the XML100 dataset from the CVRPLIB
TYPE : CVRP
DIMENSION : 16
EDGE_WEIGHT_TYPE : EUC_2D
CAPACITY : 3
NODE_COORD_SECTION
1    384  129 
2    657  31  
3    506  586 
4    214  410 
5    44   87  
6    830  518 
7    850  412 
8    91   496 
9    197  721 
10   470  499 
11   20   717 
12   196  918 
13   239  777 
14   140  253 
15   464  399 
16   273  532 
DEMAND_SECTION
1    0   
2    1   
3    1   
4    1   
5    1   
6    1   
7    1   
8    1   
9    1   
10   1   
11   1   
12   1   
13   1   
14   1   
15   1   
16   1   
DEPOT_SECTION
1
-1
EOF
