NAME : XML15_1111_17
COMMENT : Generated as the XML100 dataset from the CVRPLIB
TYPE : CVRP
DIMENSION : 16
EDGE_WEIGHT_TYPE : EUC_2D
CAPACITY : 3
NODE_COORD_SECTION
1    310  983 
2    821  325 
3    655  866 
4    254  393 
5    429  258 
6    374  296 
7    284  112 
8    178  784 
9    741  411 
10   700  967 
11   834  764 
12   722  721 
13   880  513 
14   939  27  
15   140  564 
16   553  677 
DEMAND_SECTION
1    0   
2    1   
3    1   
4    1   
5    1   
6    1   
7    1   
8    1   
9    1   
10   1   
11   1   
12   1   
13   1   
14   1   
15   1   
16   1   
DEPOT_SECTION
1
-1
EOF
