NAME : XML15_1111_13
COMMENT : Generated as the XML100 dataset from the CVRPLIB
TYPE : CVRP
DIMENSION : 16
EDGE_WEIGHT_TYPE : EUC_2D
CAPACITY : 3
NODE_COORD_SECTION
1    931  700 
2    866  219 
3    30   441 
4    890  230 
5    72   544 
6    656  751 
7    762  301 
8    854  150 
9    700  623 
10   667  236 
11   682  150 
12   821  869 
13   191  133 
14   14   282 
15   911  190 
16   129  857 
DEMAND_SECTION
1    0   
2    1   
3    1   
4    1   
5    1   
6    1   
7    1   
8    1   
9    1   
10   1   
11   1   
12   1   
13   1   
14   1   
15   1   
16   1   
DEPOT_SECTION
1
-1
EOF
