NAME : XML15_1121_04
COMMENT : Generated as the XML100 dataset from the CVRPLIB
TYPE : CVRP
DIMENSION : 16
EDGE_WEIGHT_TYPE : EUC_2D
CAPACITY : 21
NODE_COORD_SECTION
1    738  405 
2    176  846 
3    283  798 
4    949  26  
5    490  158 
6    826  266 
7    296  819 
8    562  939 
9    783  60  
10   219  965 
11   20   411 
12   848  656 
13   108  268 
14   549  368 
15   227  532 
16   92   68  
DEMAND_SECTION
1    0   
2    2   
3    9   
4    2   
5    4   
6    10  
7    9   
8    1   
9    7   
10   6   
11   7   
12   5   
13   9   
14   8   
15   7   
16   1   
DEPOT_SECTION
1
-1
EOF
