NAME : XML15_1121_11
COMMENT : Generated as the XML100 dataset from the CVRPLIB
TYPE : CVRP
DIMENSION : 16
EDGE_WEIGHT_TYPE : EUC_2D
CAPACITY : 22
NODE_COORD_SECTION
1    877  946 
2    457  310 
3    551  829 
4    987  463 
5    823  524 
6    649  42  
7    609  405 
8    799  476 
9    875  601 
10   462  520 
11   194  189 
12   190  96  
13   628  812 
14   145  92  
15   487  644 
16   911  710 
DEMAND_SECTION
1    0   
2    7   
3    1   
4    9   
5    6   
6    5   
7    2   
8    1   
9    7   
10   1   
11   2   
12   6   
13   5   
14   3   
15   7   
16   5   
DEPOT_SECTION
1
-1
EOF
