NAME : XML15_1121_10
COMMENT : Generated as the XML100 dataset from the CVRPLIB
TYPE : CVRP
DIMENSION : 16
EDGE_WEIGHT_TYPE : EUC_2D
CAPACITY : 18
NODE_COORD_SECTION
1    494  591 
2    284  669 
3    503  843 
4    501  335 
5    880  142 
6    390  431 
7    77   255 
8    830  164 
9    473  832 
10   45   430 
11   290  846 
12   35   533 
13   763  369 
14   617  363 
15   975  975 
16   15   211 
DEMAND_SECTION
1    0   
2    5   
3    2   
4    4   
5    7   
6    2   
7    10  
8    7   
9    1   
10   10  
11   10  
12   7   
13   1   
14   8   
15   7   
16   4   
DEPOT_SECTION
1
-1
EOF
