NAME : XML15_1121_16
COMMENT : Generated as the XML100 dataset from the CVRPLIB
TYPE : CVRP
DIMENSION : 16
EDGE_WEIGHT_TYPE : EUC_2D
CAPACITY : 22
NODE_COORD_SECTION
1    291  426 
2    617  259 
3    874  673 
4    232  457 
5    20   914 
6    243  650 
7    728  265 
8    5    419 
9    227  10  
10   303  309 
11   682  145 
12   22   808 
13   834  343 
14   974  761 
15   225  979 
16   616  317 
DEMAND_SECTION
1    0   
2    1   
3    10  
4    6   
5    6   
6    7   
7    5   
8    8   
9    5   
10   8   
11   4   
12   2   
13   7   
14   6   
15   2   
16   5   
DEPOT_SECTION
1
-1
EOF
