NAME : XML15_1121_13
COMMENT : Generated as the XML100 dataset from the CVRPLIB
TYPE : CVRP
DIMENSION : 16
EDGE_WEIGHT_TYPE : EUC_2D
CAPACITY : 22
NODE_COORD_SECTION
1    931  700 
2    866  219 
3    30   441 
4    890  230 
5    72   544 
6    656  751 
7    762  301 
8    854  150 
9    700  623 
10   667  236 
11   682  150 
12   821  869 
13   191  133 
14   14   282 
15   911  190 
16   129  857 
DEMAND_SECTION
1    0   
2    1   
3    10  
4    9   
5    3   
6    6   
7    2   
8    4   
9    9   
10   5   
11   3   
12   7   
13   8   
14   9   
15   5   
16   9   
DEPOT_SECTION
1
-1
EOF
