NAME : XML15_1121_15
COMMENT : Generated as the XML100 dataset from the CVRPLIB
TYPE : CVRP
DIMENSION : 16
EDGE_WEIGHT_TYPE : EUC_2D
CAPACITY : 19
NODE_COORD_SECTION
1    753  37  
2    346  477 
3    816  320 
4    725  364 
5    244  17  
6    234  957 
7    56   900 
8    895  363 
9    150  877 
10   824  697 
11   245  119 
12   711  376 
13   878  211 
14   287  401 
15   161  934 
16   269  352 
DEMAND_SECTION
1    0   
2    5   
3    1   
4    10  
5    10  
6    7   
7    5   
8    6   
9    5   
10   10  
11   4   
12   6   
13   3   
14   3   
15   9   
16   6   
DEPOT_SECTION
1
-1
EOF
