NAME : XML15_1121_20
COMMENT : Generated as the XML100 dataset from the CVRPLIB
TYPE : CVRP
DIMENSION : 16
EDGE_WEIGHT_TYPE : EUC_2D
CAPACITY : 17
NODE_COORD_SECTION
1    650  869 
2    926  103 
3    586  927 
4    893  335 
5    173  27  
6    640  930 
7    594  460 
8    336  437 
9    485  972 
10   204  324 
11   697  343 
12   94   642 
13   421  416 
14   76   105 
15   421  213 
16   128  326 
DEMAND_SECTION
1    0   
2    3   
3    1   
4    10  
5    7   
6    5   
7    3   
8    9   
9    8   
10   3   
11   3   
12   6   
13   3   
14   4   
15   3   
16   3   
DEPOT_SECTION
1
-1
EOF
