NAME : XML15_1121_07
COMMENT : Generated as the XML100 dataset from the CVRPLIB
TYPE : CVRP
DIMENSION : 16
EDGE_WEIGHT_TYPE : EUC_2D
CAPACITY : 20
NODE_COORD_SECTION
1    404  666 
2    88   444 
3    96   374 
4    564  434 
5    49   74  
6    428  71  
7    579  126 
8    840  548 
9    596  970 
10   60   846 
11   970  228 
12   246  92  
13   596  59  
14   931  519 
15   219  38  
16   645  642 
DEMAND_SECTION
1    0   
2    1   
3    2   
4    2   
5    6   
6    7   
7    1   
8    6   
9    5   
10   6   
11   3   
12   6   
13   1   
14   6   
15   6   
16   2   
DEPOT_SECTION
1
-1
EOF
