NAME : XML15_1121_17
COMMENT : Generated as the XML100 dataset from the CVRPLIB
TYPE : CVRP
DIMENSION : 16
EDGE_WEIGHT_TYPE : EUC_2D
CAPACITY : 23
NODE_COORD_SECTION
1    310  983 
2    821  325 
3    655  866 
4    254  393 
5    429  258 
6    374  296 
7    284  112 
8    178  784 
9    741  411 
10   700  967 
11   834  764 
12   722  721 
13   880  513 
14   939  27  
15   140  564 
16   553  677 
DEMAND_SECTION
1    0   
2    2   
3    9   
4    5   
5    3   
6    1   
7    8   
8    10  
9    4   
10   1   
11   6   
12   6   
13   10  
14   7   
15   9   
16   9   
DEPOT_SECTION
1
-1
EOF
