NAME : XML15_1121_02
COMMENT : Generated as the XML100 dataset from the CVRPLIB
TYPE : CVRP
DIMENSION : 16
EDGE_WEIGHT_TYPE : EUC_2D
CAPACITY : 17
NODE_COORD_SECTION
1    369  855 
2    958  455 
3    828  685 
4    380  557 
5    922  36  
6    173  753 
7    441  653 
8    874  315 
9    36   595 
10   257  620 
11   402  822 
12   217  621 
13   697  162 
14   521  972 
15   740  880 
16   514  274 
DEMAND_SECTION
1    0   
2    9   
3    5   
4    10  
5    6   
6    4   
7    10  
8    6   
9    2   
10   2   
11   9   
12   3   
13   2   
14   4   
15   2   
16   6   
DEPOT_SECTION
1
-1
EOF
