NAME : XML15_1121_12
COMMENT : Generated as the XML100 dataset from the CVRPLIB
TYPE : CVRP
DIMENSION : 16
EDGE_WEIGHT_TYPE : EUC_2D
CAPACITY : 25
NODE_COORD_SECTION
1    541  682 
2    571  1   
3    347  927 
4    677  639 
5    707  885 
6    383  494 
7    376  166 
8    280  658 
9    148  450 
10   204  76  
11   615  233 
12   215  60  
13   829  471 
14   590  838 
15   390  11  
16   358  146 
DEMAND_SECTION
1    0   
2    5   
3    10  
4    7   
5    10  
6    9   
7    1   
8    8   
9    9   
10   5   
11   7   
12   6   
13   7   
14   3   
15   10  
16   6   
DEPOT_SECTION
1
-1
EOF
