NAME : XML15_1121_06
COMMENT : Generated as the XML100 dataset from the CVRPLIB
TYPE : CVRP
DIMENSION : 16
EDGE_WEIGHT_TYPE : EUC_2D
CAPACITY : 28
NODE_COORD_SECTION
1    496  780 
2    698  96  
3    481  988 
4    777  752 
5    788  22  
6    821  202 
7    423  932 
8    551  552 
9    197  576 
10   747  893 
11   279  500 
12   566  716 
13   267  37  
14   678  600 
15   0    149 
16   382  327 
DEMAND_SECTION
1    0   
2    7   
3    1   
4    9   
5    10  
6    3   
7    9   
8    2   
9    9   
10   9   
11   3   
12   9   
13   4   
14   1   
15   7   
16   5   
DEPOT_SECTION
1
-1
EOF
