NAME : XML15_1121_03
COMMENT : Generated as the XML100 dataset from the CVRPLIB
TYPE : CVRP
DIMENSION : 16
EDGE_WEIGHT_TYPE : EUC_2D
CAPACITY : 27
NODE_COORD_SECTION
1    133  378 
2    620  13  
3    650  155 
4    654  881 
5    888  948 
6    930  857 
7    856  562 
8    481  553 
9    594  67  
10   154  237 
11   480  265 
12   564  239 
13   485  640 
14   196  734 
15   487  406 
16   937  618 
DEMAND_SECTION
1    0   
2    9   
3    8   
4    8   
5    4   
6    4   
7    10  
8    1   
9    9   
10   6   
11   8   
12   6   
13   7   
14   1   
15   5   
16   8   
DEPOT_SECTION
1
-1
EOF
