NAME : XML15_1121_08
COMMENT : Generated as the XML100 dataset from the CVRPLIB
TYPE : CVRP
DIMENSION : 16
EDGE_WEIGHT_TYPE : EUC_2D
CAPACITY : 22
NODE_COORD_SECTION
1    384  129 
2    657  31  
3    506  586 
4    214  410 
5    44   87  
6    830  518 
7    850  412 
8    91   496 
9    197  721 
10   470  499 
11   20   717 
12   196  918 
13   239  777 
14   140  253 
15   464  399 
16   273  532 
DEMAND_SECTION
1    0   
2    7   
3    3   
4    7   
5    2   
6    1   
7    4   
8    10  
9    7   
10   5   
11   4   
12   10  
13   10  
14   4   
15   5   
16   7   
DEPOT_SECTION
1
-1
EOF
