NAME : XML15_1121_09
COMMENT : Generated as the XML100 dataset from the CVRPLIB
TYPE : CVRP
DIMENSION : 16
EDGE_WEIGHT_TYPE : EUC_2D
CAPACITY : 29
NODE_COORD_SECTION
1    273  141 
2    619  82  
3    958  631 
4    52   113 
5    173  720 
6    346  514 
7    474  919 
8    692  6   
9    968  462 
10   190  887 
11   974  742 
12   172  243 
13   716  41  
14   745  388 
15   432  160 
16   342  567 
DEMAND_SECTION
1    0   
2    10  
3    7   
4    4   
5    3   
6    9   
7    9   
8    10  
9    3   
10   8   
11   9   
12   10  
13   1   
14   2   
15   8   
16   8   
DEPOT_SECTION
1
-1
EOF
