NAME : XML15_1121_14
COMMENT : Generated as the XML100 dataset from the CVRPLIB
TYPE : CVRP
DIMENSION : 16
EDGE_WEIGHT_TYPE : EUC_2D
CAPACITY : 22
NODE_COORD_SECTION
1    773  667 
2    752  261 
3    891  923 
4    369  823 
5    269  228 
6    252  277 
7    930  121 
8    827  266 
9    539  962 
10   323  366 
11   74   674 
12   298  751 
13   460  310 
14   403  796 
15   477  700 
16   893  406 
DEMAND_SECTION
1    0   
2    1   
3    6   
4    3   
5    4   
6    7   
7    7   
8    1   
9    2   
10   1   
11   3   
12   9   
13   6   
14   9   
15   10  
16   6   
DEPOT_SECTION
1
-1
EOF
