NAME : XML25_1111_13
COMMENT : Generated as the XML100 dataset from the CVRPLIB
TYPE : CVRP
DIMENSION : 26
EDGE_WEIGHT_TYPE : EUC_2D
CAPACITY : 3
NODE_COORD_SECTION
1    931  700 
2    890  230 
3    447  972 
4    142  812 
5    364  870 
6    129  857 
7    86   892 
8    909  825 
9    700  623 
10   667  236 
11   191  133 
12   866  219 
13   461  762 
14   30   441 
15   813  829 
16   268  846 
17   72   544 
18   656  751 
19   854  150 
20   682  150 
21   911  190 
22   762  301 
23   898  262 
24   239  498 
25   821  869 
26   14   282 
DEMAND_SECTION
1    0   
2    1   
3    1   
4    1   
5    1   
6    1   
7    1   
8    1   
9    1   
10   1   
11   1   
12   1   
13   1   
14   1   
15   1   
16   1   
17   1   
18   1   
19   1   
20   1   
21   1   
22   1   
23   1   
24   1   
25   1   
26   1   
DEPOT_SECTION
1
-1
EOF
