NAME : XML25_1111_09
COMMENT : Generated as the XML100 dataset from the CVRPLIB
TYPE : CVRP
DIMENSION : 26
EDGE_WEIGHT_TYPE : EUC_2D
CAPACITY : 4
NODE_COORD_SECTION
1    273  141 
2    52   113 
3    173  720 
4    792  704 
5    346  514 
6    474  919 
7    764  908 
8    690  229 
9    743  812 
10   104  941 
11   432  160 
12   604  64  
13   692  6   
14   892  946 
15   342  567 
16   619  82  
17   958  631 
18   968  462 
19   135  518 
20   190  887 
21   392  808 
22   298  209 
23   974  742 
24   716  41  
25   745  388 
26   172  243 
DEMAND_SECTION
1    0   
2    1   
3    1   
4    1   
5    1   
6    1   
7    1   
8    1   
9    1   
10   1   
11   1   
12   1   
13   1   
14   1   
15   1   
16   1   
17   1   
18   1   
19   1   
20   1   
21   1   
22   1   
23   1   
24   1   
25   1   
26   1   
DEPOT_SECTION
1
-1
EOF
