NAME : XML25_1111_01
COMMENT : Generated as the XML100 dataset from the CVRPLIB
TYPE : CVRP
DIMENSION : 26
EDGE_WEIGHT_TYPE : EUC_2D
CAPACITY : 4
NODE_COORD_SECTION
1    821  782 
2    665  554 
3    388  807 
4    104  923 
5    779  460 
6    64   261 
7    821  234 
8    120  507 
9    22   26  
10   902  390 
11   399  443 
12   914  855 
13   702  221 
14   272  738 
15   785  2   
16   992  432 
17   499  29  
18   622  780 
19   483  667 
20   743  29  
21   540  227 
22   9    961 
23   712  456 
24   605  967 
25   325  31  
26   214  96  
DEMAND_SECTION
1    0   
2    1   
3    1   
4    1   
5    1   
6    1   
7    1   
8    1   
9    1   
10   1   
11   1   
12   1   
13   1   
14   1   
15   1   
16   1   
17   1   
18   1   
19   1   
20   1   
21   1   
22   1   
23   1   
24   1   
25   1   
26   1   
DEPOT_SECTION
1
-1
EOF
