NAME : XML25_1111_08
COMMENT : Generated as the XML100 dataset from the CVRPLIB
TYPE : CVRP
DIMENSION : 26
EDGE_WEIGHT_TYPE : EUC_2D
CAPACITY : 3
NODE_COORD_SECTION
1    384  129 
2    657  31  
3    214  410 
4    110  676 
5    395  635 
6    140  253 
7    264  99  
8    464  399 
9    273  532 
10   44   87  
11   833  64  
12   417  485 
13   849  386 
14   239  777 
15   850  412 
16   470  499 
17   20   717 
18   59   346 
19   923  933 
20   506  586 
21   91   496 
22   830  518 
23   116  678 
24   197  721 
25   196  918 
26   388  743 
DEMAND_SECTION
1    0   
2    1   
3    1   
4    1   
5    1   
6    1   
7    1   
8    1   
9    1   
10   1   
11   1   
12   1   
13   1   
14   1   
15   1   
16   1   
17   1   
18   1   
19   1   
20   1   
21   1   
22   1   
23   1   
24   1   
25   1   
26   1   
DEPOT_SECTION
1
-1
EOF
