NAME : XML25_1111_11
COMMENT : Generated as the XML100 dataset from the CVRPLIB
TYPE : CVRP
DIMENSION : 26
EDGE_WEIGHT_TYPE : EUC_2D
CAPACITY : 4
NODE_COORD_SECTION
1    877  946 
2    823  524 
3    649  42  
4    875  601 
5    30   796 
6    628  812 
7    911  710 
8    247  614 
9    609  405 
10   462  520 
11   161  638 
12   487  644 
13   457  310 
14   987  463 
15   630  665 
16   194  900 
17   475  334 
18   799  476 
19   60   36  
20   194  189 
21   145  92  
22   551  829 
23   669  756 
24   541  64  
25   190  96  
26   15   851 
DEMAND_SECTION
1    0   
2    1   
3    1   
4    1   
5    1   
6    1   
7    1   
8    1   
9    1   
10   1   
11   1   
12   1   
13   1   
14   1   
15   1   
16   1   
17   1   
18   1   
19   1   
20   1   
21   1   
22   1   
23   1   
24   1   
25   1   
26   1   
DEPOT_SECTION
1
-1
EOF
