NAME : XML25_1111_03
COMMENT : Generated as the XML100 dataset from the CVRPLIB
TYPE : CVRP
DIMENSION : 26
EDGE_WEIGHT_TYPE : EUC_2D
CAPACITY : 4
NODE_COORD_SECTION
1    133  378 
2    687  795 
3    776  980 
4    154  237 
5    564  239 
6    484  609 
7    196  734 
8    308  798 
9    31   843 
10   930  857 
11   886  275 
12   487  406 
13   937  618 
14   650  155 
15   888  948 
16   856  562 
17   485  640 
18   65   163 
19   605  43  
20   620  13  
21   654  881 
22   481  553 
23   594  67  
24   480  265 
25   759  15  
26   535  399 
DEMAND_SECTION
1    0   
2    1   
3    1   
4    1   
5    1   
6    1   
7    1   
8    1   
9    1   
10   1   
11   1   
12   1   
13   1   
14   1   
15   1   
16   1   
17   1   
18   1   
19   1   
20   1   
21   1   
22   1   
23   1   
24   1   
25   1   
26   1   
DEPOT_SECTION
1
-1
EOF
