NAME : XML25_1111_02
COMMENT : Generated as the XML100 dataset from the CVRPLIB
TYPE : CVRP
DIMENSION : 26
EDGE_WEIGHT_TYPE : EUC_2D
CAPACITY : 3
NODE_COORD_SECTION
1    369  855 
2    828  685 
3    922  36  
4    929  389 
5    180  332 
6    958  455 
7    905  538 
8    173  753 
9    441  653 
10   874  315 
11   36   595 
12   954  326 
13   181  241 
14   521  972 
15   514  274 
16   380  557 
17   168  573 
18   257  620 
19   402  822 
20   891  28  
21   236  24  
22   217  621 
23   372  476 
24   433  913 
25   697  162 
26   740  880 
DEMAND_SECTION
1    0   
2    1   
3    1   
4    1   
5    1   
6    1   
7    1   
8    1   
9    1   
10   1   
11   1   
12   1   
13   1   
14   1   
15   1   
16   1   
17   1   
18   1   
19   1   
20   1   
21   1   
22   1   
23   1   
24   1   
25   1   
26   1   
DEPOT_SECTION
1
-1
EOF
