NAME : XML25_1111_16
COMMENT : Generated as the XML100 dataset from the CVRPLIB
TYPE : CVRP
DIMENSION : 26
EDGE_WEIGHT_TYPE : EUC_2D
CAPACITY : 3
NODE_COORD_SECTION
1    291  426 
2    874  673 
3    20   914 
4    728  265 
5    5    419 
6    646  28  
7    613  641 
8    620  683 
9    229  801 
10   157  827 
11   243  650 
12   682  145 
13   720  303 
14   227  10  
15   834  343 
16   617  259 
17   317  370 
18   232  457 
19   974  761 
20   225  979 
21   264  430 
22   806  88  
23   303  309 
24   22   808 
25   475  467 
26   616  317 
DEMAND_SECTION
1    0   
2    1   
3    1   
4    1   
5    1   
6    1   
7    1   
8    1   
9    1   
10   1   
11   1   
12   1   
13   1   
14   1   
15   1   
16   1   
17   1   
18   1   
19   1   
20   1   
21   1   
22   1   
23   1   
24   1   
25   1   
26   1   
DEPOT_SECTION
1
-1
EOF
