NAME : XML25_1111_10
COMMENT : Generated as the XML100 dataset from the CVRPLIB
TYPE : CVRP
DIMENSION : 26
EDGE_WEIGHT_TYPE : EUC_2D
CAPACITY : 3
NODE_COORD_SECTION
1    494  591 
2    77   255 
3    473  832 
4    35   533 
5    763  369 
6    786  880 
7    975  975 
8    245  992 
9    702  310 
10   467  178 
11   501  335 
12   390  431 
13   880  142 
14   45   430 
15   617  363 
16   450  628 
17   284  669 
18   384  45  
19   290  846 
20   677  371 
21   596  4   
22   15   211 
23   503  843 
24   136  467 
25   830  164 
26   691  268 
DEMAND_SECTION
1    0   
2    1   
3    1   
4    1   
5    1   
6    1   
7    1   
8    1   
9    1   
10   1   
11   1   
12   1   
13   1   
14   1   
15   1   
16   1   
17   1   
18   1   
19   1   
20   1   
21   1   
22   1   
23   1   
24   1   
25   1   
26   1   
DEPOT_SECTION
1
-1
EOF
