NAME : XML25_1111_06
COMMENT : Generated as the XML100 dataset from the CVRPLIB
TYPE : CVRP
DIMENSION : 26
EDGE_WEIGHT_TYPE : EUC_2D
CAPACITY : 4
NODE_COORD_SECTION
1    496  780 
2    864  434 
3    423  932 
4    279  500 
5    370  819 
6    256  455 
7    698  96  
8    481  988 
9    419  824 
10   777  752 
11   702  90  
12   197  576 
13   271  678 
14   267  37  
15   788  22  
16   821  202 
17   551  552 
18   747  893 
19   822  624 
20   824  746 
21   343  95  
22   566  716 
23   716  96  
24   678  600 
25   0    149 
26   382  327 
DEMAND_SECTION
1    0   
2    1   
3    1   
4    1   
5    1   
6    1   
7    1   
8    1   
9    1   
10   1   
11   1   
12   1   
13   1   
14   1   
15   1   
16   1   
17   1   
18   1   
19   1   
20   1   
21   1   
22   1   
23   1   
24   1   
25   1   
26   1   
DEPOT_SECTION
1
-1
EOF
