NAME : XML25_1111_07
COMMENT : Generated as the XML100 dataset from the CVRPLIB
TYPE : CVRP
DIMENSION : 26
EDGE_WEIGHT_TYPE : EUC_2D
CAPACITY : 4
NODE_COORD_SECTION
1    404  666 
2    553  120 
3    428  71  
4    596  970 
5    60   846 
6    970  228 
7    645  642 
8    584  315 
9    88   444 
10   564  434 
11   49   74  
12   579  126 
13   599  406 
14   96   374 
15   840  548 
16   50   999 
17   573  835 
18   226  47  
19   596  59  
20   931  519 
21   219  38  
22   570  879 
23   429  147 
24   63   590 
25   136  296 
26   246  92  
DEMAND_SECTION
1    0   
2    1   
3    1   
4    1   
5    1   
6    1   
7    1   
8    1   
9    1   
10   1   
11   1   
12   1   
13   1   
14   1   
15   1   
16   1   
17   1   
18   1   
19   1   
20   1   
21   1   
22   1   
23   1   
24   1   
25   1   
26   1   
DEPOT_SECTION
1
-1
EOF
