NAME : XML25_1111_18
COMMENT : Generated as the XML100 dataset from the CVRPLIB
TYPE : CVRP
DIMENSION : 26
EDGE_WEIGHT_TYPE : EUC_2D
CAPACITY : 3
NODE_COORD_SECTION
1    459  342 
2    643  505 
3    780  806 
4    245  202 
5    205  752 
6    733  306 
7    350  999 
8    519  206 
9    990  966 
10   178  886 
11   173  243 
12   120  332 
13   920  708 
14   534  691 
15   908  270 
16   271  6   
17   302  469 
18   374  589 
19   774  855 
20   913  894 
21   187  491 
22   505  221 
23   974  501 
24   830  240 
25   829  693 
26   200  259 
DEMAND_SECTION
1    0   
2    1   
3    1   
4    1   
5    1   
6    1   
7    1   
8    1   
9    1   
10   1   
11   1   
12   1   
13   1   
14   1   
15   1   
16   1   
17   1   
18   1   
19   1   
20   1   
21   1   
22   1   
23   1   
24   1   
25   1   
26   1   
DEPOT_SECTION
1
-1
EOF
