NAME : XML25_1111_04
COMMENT : Generated as the XML100 dataset from the CVRPLIB
TYPE : CVRP
DIMENSION : 26
EDGE_WEIGHT_TYPE : EUC_2D
CAPACITY : 3
NODE_COORD_SECTION
1    738  405 
2    642  888 
3    949  26  
4    749  983 
5    227  532 
6    88   865 
7    490  158 
8    826  266 
9    783  60  
10   901  381 
11   687  397 
12   848  656 
13   176  846 
14   283  798 
15   875  868 
16   562  939 
17   819  278 
18   549  368 
19   92   68  
20   317  296 
21   198  168 
22   296  819 
23   219  965 
24   20   411 
25   108  268 
26   620  345 
DEMAND_SECTION
1    0   
2    1   
3    1   
4    1   
5    1   
6    1   
7    1   
8    1   
9    1   
10   1   
11   1   
12   1   
13   1   
14   1   
15   1   
16   1   
17   1   
18   1   
19   1   
20   1   
21   1   
22   1   
23   1   
24   1   
25   1   
26   1   
DEPOT_SECTION
1
-1
EOF
