NAME : XML25_1111_19
COMMENT : Generated as the XML100 dataset from the CVRPLIB
TYPE : CVRP
DIMENSION : 26
EDGE_WEIGHT_TYPE : EUC_2D
CAPACITY : 4
NODE_COORD_SECTION
1    532  123 
2    632  206 
3    116  555 
4    791  333 
5    523  204 
6    900  72  
7    75   822 
8    100  424 
9    450  674 
10   598  151 
11   110  266 
12   873  405 
13   918  318 
14   609  267 
15   23   582 
16   991  274 
17   592  745 
18   433  773 
19   421  335 
20   854  110 
21   402  355 
22   541  296 
23   942  207 
24   466  397 
25   17   101 
26   886  751 
DEMAND_SECTION
1    0   
2    1   
3    1   
4    1   
5    1   
6    1   
7    1   
8    1   
9    1   
10   1   
11   1   
12   1   
13   1   
14   1   
15   1   
16   1   
17   1   
18   1   
19   1   
20   1   
21   1   
22   1   
23   1   
24   1   
25   1   
26   1   
DEPOT_SECTION
1
-1
EOF
