NAME : XML25_1111_17
COMMENT : Generated as the XML100 dataset from the CVRPLIB
TYPE : CVRP
DIMENSION : 26
EDGE_WEIGHT_TYPE : EUC_2D
CAPACITY : 3
NODE_COORD_SECTION
1    310  983 
2    284  112 
3    832  810 
4    722  545 
5    939  27  
6    140  564 
7    978  702 
8    821  325 
9    655  866 
10   429  258 
11   215  338 
12   741  411 
13   63   143 
14   834  764 
15   722  721 
16   903  732 
17   553  677 
18   254  393 
19   552  126 
20   700  967 
21   880  513 
22   896  201 
23   572  821 
24   374  296 
25   154  903 
26   178  784 
DEMAND_SECTION
1    0   
2    1   
3    1   
4    1   
5    1   
6    1   
7    1   
8    1   
9    1   
10   1   
11   1   
12   1   
13   1   
14   1   
15   1   
16   1   
17   1   
18   1   
19   1   
20   1   
21   1   
22   1   
23   1   
24   1   
25   1   
26   1   
DEPOT_SECTION
1
-1
EOF
