NAME : XML25_1111_05
COMMENT : Generated as the XML100 dataset from the CVRPLIB
TYPE : CVRP
DIMENSION : 26
EDGE_WEIGHT_TYPE : EUC_2D
CAPACITY : 3
NODE_COORD_SECTION
1    367  814 
2    860  476 
3    542  29  
4    135  1   
5    73   142 
6    707  965 
7    104  587 
8    995  892 
9    889  252 
10   861  757 
11   888  784 
12   667  944 
13   255  664 
14   160  115 
15   632  632 
16   53   922 
17   398  163 
18   748  221 
19   417  286 
20   186  938 
21   794  965 
22   380  480 
23   255  13  
24   455  129 
25   389  556 
26   780  816 
DEMAND_SECTION
1    0   
2    1   
3    1   
4    1   
5    1   
6    1   
7    1   
8    1   
9    1   
10   1   
11   1   
12   1   
13   1   
14   1   
15   1   
16   1   
17   1   
18   1   
19   1   
20   1   
21   1   
22   1   
23   1   
24   1   
25   1   
26   1   
DEPOT_SECTION
1
-1
EOF
