NAME : XML25_1111_12
COMMENT : Generated as the XML100 dataset from the CVRPLIB
TYPE : CVRP
DIMENSION : 26
EDGE_WEIGHT_TYPE : EUC_2D
CAPACITY : 3
NODE_COORD_SECTION
1    541  682 
2    817  862 
3    571  1   
4    89   19  
5    204  76  
6    358  146 
7    347  927 
8    707  885 
9    697  414 
10   215  60  
11   940  62  
12   433  969 
13   677  521 
14   376  166 
15   228  93  
16   829  471 
17   839  936 
18   677  639 
19   383  494 
20   280  658 
21   525  703 
22   148  450 
23   590  838 
24   390  11  
25   615  233 
26   838  345 
DEMAND_SECTION
1    0   
2    1   
3    1   
4    1   
5    1   
6    1   
7    1   
8    1   
9    1   
10   1   
11   1   
12   1   
13   1   
14   1   
15   1   
16   1   
17   1   
18   1   
19   1   
20   1   
21   1   
22   1   
23   1   
24   1   
25   1   
26   1   
DEPOT_SECTION
1
-1
EOF
