NAME : XML25_1111_20
COMMENT : Generated as the XML100 dataset from the CVRPLIB
TYPE : CVRP
DIMENSION : 26
EDGE_WEIGHT_TYPE : EUC_2D
CAPACITY : 3
NODE_COORD_SECTION
1    650  869 
2    640  930 
3    594  460 
4    421  416 
5    926  103 
6    893  335 
7    173  27  
8    782  290 
9    259  710 
10   861  503 
11   586  927 
12   85   194 
13   414  83  
14   248  35  
15   312  706 
16   697  343 
17   94   642 
18   206  96  
19   76   105 
20   421  213 
21   128  326 
22   211  586 
23   336  437 
24   485  972 
25   204  324 
26   530  824 
DEMAND_SECTION
1    0   
2    1   
3    1   
4    1   
5    1   
6    1   
7    1   
8    1   
9    1   
10   1   
11   1   
12   1   
13   1   
14   1   
15   1   
16   1   
17   1   
18   1   
19   1   
20   1   
21   1   
22   1   
23   1   
24   1   
25   1   
26   1   
DEPOT_SECTION
1
-1
EOF
