NAME : XML25_1111_14
COMMENT : Generated as the XML100 dataset from the CVRPLIB
TYPE : CVRP
DIMENSION : 26
EDGE_WEIGHT_TYPE : EUC_2D
CAPACITY : 4
NODE_COORD_SECTION
1    773  667 
2    281  168 
3    647  646 
4    280  209 
5    74   674 
6    298  751 
7    28   85  
8    460  310 
9    164  564 
10   891  923 
11   369  823 
12   252  277 
13   477  700 
14   10   667 
15   752  261 
16   71   125 
17   930  121 
18   539  962 
19   528  153 
20   403  796 
21   681  679 
22   269  228 
23   827  266 
24   323  366 
25   609  345 
26   893  406 
DEMAND_SECTION
1    0   
2    1   
3    1   
4    1   
5    1   
6    1   
7    1   
8    1   
9    1   
10   1   
11   1   
12   1   
13   1   
14   1   
15   1   
16   1   
17   1   
18   1   
19   1   
20   1   
21   1   
22   1   
23   1   
24   1   
25   1   
26   1   
DEPOT_SECTION
1
-1
EOF
