NAME : XML25_1111_15
COMMENT : Generated as the XML100 dataset from the CVRPLIB
TYPE : CVRP
DIMENSION : 26
EDGE_WEIGHT_TYPE : EUC_2D
CAPACITY : 3
NODE_COORD_SECTION
1    753  37  
2    578  818 
3    816  320 
4    725  364 
5    895  363 
6    150  877 
7    466  860 
8    523  430 
9    269  352 
10   346  477 
11   244  17  
12   583  322 
13   56   900 
14   245  119 
15   368  449 
16   711  376 
17   161  934 
18   429  501 
19   80   472 
20   878  211 
21   947  744 
22   234  957 
23   236  591 
24   824  697 
25   228  312 
26   287  401 
DEMAND_SECTION
1    0   
2    1   
3    1   
4    1   
5    1   
6    1   
7    1   
8    1   
9    1   
10   1   
11   1   
12   1   
13   1   
14   1   
15   1   
16   1   
17   1   
18   1   
19   1   
20   1   
21   1   
22   1   
23   1   
24   1   
25   1   
26   1   
DEPOT_SECTION
1
-1
EOF
